CMD:
./solvers/bin/cadical --plain --no-reduce -t 1600 ./data/cnfs//arbitrated_top_n5_w32_d32_e0/arbitrated_top_n5_w32_d32_e0.27.cnf

c --- [ banner ] -------------------------------------------------------------
c 
c CaDiCaL SAT Solver
c Copyright (c) 2016-2024
c A. Biere, M. Fleury, N. Froleyks, K. Fazekas, F. Pollitt, T. Faller
c JKU Linz, University of Freiburg, TU Wien
c 
c Version 2.1.3 5296d3d2a9bf48c154ab2acb5e44625776d821bf
c g++ (Gentoo 12.3.1_p20230526 p2) 12.3.1 20230526 -Wall -Wextra -O3 -DNDEBUG
c Sat Aug 9 07:26:21 PDT 2025 Linux cedar2.int.cedar.computecanada.ca 5.14.0-362.24.2.el9_3.x86_64 x86_64
c 
c --- [ limit ] --------------------------------------------------------------
c 
c setting time limit to 1600 seconds real time (due to '-t 1600')
c 
c --- [ parsing input ] ------------------------------------------------------
c 
c reading DIMACS file from './data/cnfs//arbitrated_top_n5_w32_d32_e0/arbitrated_top_n5_w32_d32_e0.27.cnf'
c opening file to read './data/cnfs//arbitrated_top_n5_w32_d32_e0/arbitrated_top_n5_w32_d32_e0.27.cnf'
c found 'p cnf 806826 2389577' header
c parsed 2389577 clauses in 0.31 seconds process time
c 
c --- [ options ] ------------------------------------------------------------
c 
c   --compact=false                (different from default 'true')
c   --decompose=false              (different from default 'true')
c   --deduplicate=false            (different from default 'true')
c   --elim=false                   (different from default 'true')
c   --probe=false                  (different from default 'true')
c   --reduce=false                 (different from default 'true')
c   --subsume=false                (different from default 'true')
c   --ternary=false                (different from default 'true')
c   --transred=false               (different from default 'true')
c   --vivify=false                 (different from default 'true')
c 
c --- [ solving ] ------------------------------------------------------------
c 
c time measured in process time since initialization
c 
c  seconds   reductions  redundant   irredundant
c          MB    restarts       trail        variables
c           level   conflicts       glue           remaining
c 
c *  0.31 312  0 0   0    0    0  0% 0 1764156 385322 48%
c {  0.38 316  0 0   0    0    0  0% 0 1764156 385322 48%
c i  0.46 316 2155 0   4  121  116 71% 2 1764156 385314 48%
c i  0.46 316 2120 0   4  123  117 70% 2 1764156 385306 48%
c i  0.46 316 2037 0   4  128  121 70% 2 1764156 385275 48%
c i  0.46 316 1990 0   4  131  123 69% 2 1764156 385191 48%
c i  0.46 316 1975 0   4  132  123 69% 2 1764156 385173 48%
c i  0.53 316 703 0  76  419  388 59% 4 1764156 385115 48%
c i  0.54 316 594 0  96  507  464 58% 4 1764156 385077 48%
c i  0.54 316 579 0  98  520  472 58% 4 1764156 384792 48%
c i  0.54 316 554 0  98  543  492 57% 4 1764156 384789 48%
c i  0.54 316 540 0  98  558  504 57% 4 1764156 384587 48%
c i  0.54 316 539 0  98  559  504 57% 4 1764156 384517 48%
c i  0.54 316 535 0  98  563  507 57% 4 1764156 384308 48%
c i  0.54 316 530 0  98  568  511 57% 4 1764156 384307 48%
c i  0.55 316 505 0 100  598  540 57% 4 1764156 384055 48%
c i  0.58 316 426 0 130  716  649 57% 4 1764156 384045 48%
c i  0.58 316 419 0 134  729  659 56% 4 1764156 384027 48%
c i  0.58 316 405 0 135  757  686 56% 4 1764156 384022 48%
c i  0.62 316 346 0 160  905  823 56% 4 1764156 383983 48%
c 
c  seconds    reductions  redundant   irredundant
c          MB     restarts       trail        variables
c            level   conflicts       glue           remaining
c 
c i  0.63 316 339 0 161  926  842 56% 4 1764156 383938 48%
c i  0.63 316 338 0 162  929  844 56% 4 1764156 383893 48%
c i  0.63 316 319 0 163  996  908 56% 4 1764156 383880 48%
c }  0.63 316 318 0 163 1000  912 56% 4 1764156 383880 48%
c [  0.63 316  0 0 163 1000  912  0% 0 1764156 383880 48%
c O  0.76 316 7895 0 163 1002  914 79% 3 1764156 383874 48%
c i  0.80 316 7365 0 163 1641 1515 73% 4 1764156 383839 48%
c ]  0.94 316 3432 0 164 3000 2742 62% 6 1764156 383733 48%
c {  0.94 316 318 0 164 3000 2742 56% 4 1764156 383733 48%
c F  0.94 316 317 0 164 3003 2745 56% 4 1764156 383733 48%
c i  0.95 316 304 0 164 3051 2788 56% 4 1764156 383709 48%
c i  1.01 316 243 0 220 3376 3093 55% 5 1764156 383666 48%
c i  1.02 316 228 0 229 3467 3175 55% 4 1764156 383660 48%
c i  1.03 316 214 0 238 3586 3280 55% 4 1764156 383647 48%
c i  1.04 316 211 0 241 3612 3303 55% 5 1764156 383646 48%
c i  1.04 316 210 0 241 3621 3311 55% 4 1764156 383605 48%
c i  1.05 316 209 0 241 3636 3322 55% 4 1764156 383568 48%
c i  1.12 316 170 0 291 4104 3752 55% 5 1764156 383514 48%
c i  1.19 316 139 0 352 4689 4268 55% 5 1764156 383498 48%
c i  1.20 316 135 0 353 4792 4365 55% 5 1764156 383493 48%
c 
c  seconds    reductions  redundant   irredundant
c          MB     restarts       trail        variables
c            level   conflicts       glue           remaining
c 
c i  1.22 316 133 0 366 4841 4408 55% 5 1764156 383480 48%
c i  1.32 316 115 0 430 5511 5021 54% 5 1764156 383466 48%
c i  1.38 316 108 0 459 5826 5320 54% 5 1764156 383408 48%
c #  1.41 316 105 0 474 6004 5474 54% 5 1764156 383408 48%
... skipped 104 lines ...
c i 109.19 378 24 0 20898 307275 267791 54% 8 939409 381702 47%
c W 125.17 389 24 0 23958 325044 262483 54% 9 937724 381702 47%
c i 130.31 389 23 0 24685 333570 269457 54% 9 937724 381700 47%
c i 130.69 389 23 0 24685 335058 270220 54% 9 937724 381689 47%
c i 139.29 389 23 0 26253 345616 279986 54% 9 937724 381636 47%
c # 142.89 389 23 0 26861 351046 284953 54% 9 937724 381636 47%
c i 148.85 389 22 0 27965 361341 293438 54% 9 937724 381581 47%
c i 149.84 389 21 0 27970 364541 295707 54% 9 937724 381230 47%
c B 158.98 389 21 0 29591 378049 307833 54% 9 937724 381230 47%
c W 176.10 388 20 0 32091 406051 276169 54% 9 935225 381230 47%
c i 176.68 388 20 0 32197 406571 276656 54% 9 935225 381123 47%
c i 185.86 388 20 0 33735 421656 289871 54% 9 935225 381085 47%
c 
c  seconds    reductions       redundant   irredundant
c           MB     restarts            trail       variables
c            level      conflicts          glue          remaining
c 
c F 196.38 388 20 0 35991 435055 301743 54% 9 935225 381085 47%
c i 202.00 388 19 0 37130 443200 308689 54% 9 935225 381074 47%
c B 218.12 388 19 0 40465 465057 328752 54% 10 935225 381074 47%
c i 227.13 388 19 0 42050 481335 342779 54% 10 935225 381063 47%
c W 236.67 395 19 0 43712 496060 324490 54% 10 934787 381063 47%
c } 244.67 395 19 0 45146 511003 337726 54% 10 934787 381063 47%
c [ 244.67 395 38 0 45146 511003 337726 55% 13 934787 381063 47%
c i 249.61 395 34 0 45146 525220 347118 55% 13 934787 380845 47%
c W 251.01 389 34 0 45146 528065 284367 55% 13 932065 380845 47%
c I 260.67 389 29 0 45160 561068 314294 55% 12 932065 380845 47%
c B 272.18 389 24 0 45175 595070 343190 54% 12 932065 380845 47%
c i 283.76 389 21 0 45177 621709 365048 54% 11 932065 380498 47%
c i 286.84 389 20 0 45182 628260 369559 54% 11 932065 380447 47%
c i 287.27 389 20 0 45183 629544 370033 54% 11 932065 380415 47%
c W 288.27 390 20 0 45183 630072 290556 54% 11 930697 380415 47%
c i 290.08 390 20 0 45185 634622 293557 54% 11 930697 380352 47%
c i 297.03 390 18 0 45192 651289 305752 54% 10 930697 379161 47%
c i 297.06 390 18 0 45192 651382 305791 54% 10 930697 378933 47%
c i 297.07 390 18 0 45192 651396 305793 54% 10 930697 378918 47%
c i 297.07 390 18 0 45192 651397 305793 54% 10 930697 378758 47%
c 
c  seconds    reductions       redundant    irredundant
c           MB     restarts            trail        variables
c            level      conflicts          glue           remaining
c 
c i 297.07 390 18 0 45192 651400 305795 54% 10 930697 378662 47%
c i 297.07 390 18 0 45192 651401 305795 54% 10 930697 376007 47%
c ] 297.07 390 18 0 45192 651403 305795 54% 10 930697 375932 47%
c 0 297.07 390 18 0 45192 651403 305795 54% 10 930697 375932 47%
c 
c --- [ result ] -------------------------------------------------------------
c 
s UNSATISFIABLE
c 
c --- [ run-time profiling ] -------------------------------------------------
c 
c process time taken by individual solving procedures
c (percentage relative to process time for solving)
c 
c       296.75  100.00% search
c       199.78   67.32% unstable
c        90.49   30.49% stable
c         6.42    2.16% walk
c         0.31    0.11% parse
c         0.06    0.02% lucky
c         0.00    0.00% simplify
c   =================================
c       296.75   99.89% solve
c 
c last line shows process time for solving
c (percentage relative to total process time)
c 
c --- [ statistics ] ---------------------------------------------------------
c 
c chronological:             97311        14.94 %  of conflicts
c conflicts:                651403      2195.09    per second
c decisions:               1801960      6072.22    per second
c fixed:                    430738        53.39 %  of all variables
c learned:                  642665        98.66 %  per conflict
c learned_lits:           36799876       100.00 %  learned literals
c minimized:                     0         0.00 %  learned literals
c shrunken:                9264393        25.18 %  learned literals
c minishrunken:            9550083        25.95 %  learned literals
c otfs:                       1965         0.30 %  of conflict
c propagations:         1569792034         5.29 M  per second
c rephased:                     35     18611.51    interval
c restarts:                  45192        14.41    interval
c stabilizing:                   5        47.64 %  of conflicts
c subsumed:                  74302         3.09 %  of all clauses
c strengthened:               1882         0.08 %  of all clauses
c walked:                       11     59218.45    interval
c 
c seconds are measured in process time for solving
c 
c --- [ resources ] ----------------------------------------------------------
c 
c total process time since initialization:       297.07    seconds
c total real time since initialization:          298.29    seconds
c maximum resident set size of process:          459.11    MB
c 
c --- [ shutting down ] ------------------------------------------------------
c 
c exit 20
